p cnf 11 31
11 -8 -4 0
-11 8 -1 0
-11 7 3 0
11 7 2 0
11 -7 -2 0
11 -6 3 0
-11 -5 -1 0
-11 -4 1 0
-11 3 -2 0
-11 3 -1 0
10 9 6 0
10 -9 2 0
10 9 -1 0
-10 6 2 0
10 -6 1 0
10 -5 -1 0
-9 8 7 0
-9 8 4 0
9 -8 4 0
9 -8 -1 0
-9 8 1 0
9 7 3 0
9 6 -2 0
8 -4 -3 0
8 -4 1 0
-8 -4 -1 0
7 -6 -5 0
-7 -5 4 0
7 -4 3 0
-6 3 1 0
5 4 1 0
